NAME: instance_2536
TYPE: TSP
DIMENSION: 20
EDGE_WEIGHT_TYPE: EUC_2D
NODE_COORD_SECTION
0 68.86 16.43
1 27.34 15.05
2 82.88 60.19
3 98.70 85.75
4 53.72 19.62
5 3.87 79.41
6 6.51 53.78
7 28.83 2.74
8 80.14 58.39
9 43.78 77.38
10 63.38 80.37
11 43.24 98.04
12 68.19 78.95
13 10.02 12.47
14 0.91 19.73
15 95.58 34.22
16 73.30 82.21
17 1.85 36.04
18 31.02 26.70
19 25.76 22.96
EOF
